words_hard_train/2009.qaiger
aag 63 16 0 1 47
2
4
8
16
22
24
32
34
38
40
62
70
76
84
98
106
127
6 3 4
10 5 9
12 4 8
14 11 13
18 15 17
20 7 19
26 22 24
28 2 5
30 27 29
36 32 34
42 39 41
44 36 43
46 38 40
48 45 47
50 23 25
52 49 51
54 30 53
56 20 55
58 14 16
60 57 59
64 13 63
66 12 62
68 65 67
72 69 71
74 61 73
78 67 77
80 66 76
82 79 81
86 82 84
88 75 87
90 68 70
92 88 91
94 83 85
96 93 95
100 81 98
102 80 99
104 101 103
108 105 106
110 96 109
112 104 107
114 111 113
116 35 25
118 116 41
120 118 102
122 114 120
124 115 121
126 123 125
i0 2 y2[3]
i1 1 x2[3]
i2 1 x2[4]
i3 2 y2[4]
i4 2 y2[2]
i5 1 x2[2]
i6 2 y2[0]
i7 1 x2[0]
i8 2 y2[1]
i9 1 x2[1]
i10 1 x2[5]
i11 2 y2[5]
i12 1 x2[6]
i13 2 y2[6]
i14 1 x2[7]
i15 2 y2[7]
o0 bv[0]
c
simplified
  >=
    2 y2
    add
      subtract
        invert
          1 x2
        8
      1
