words_hard_train/2009.qaiger.qdimacs
p cnf 63 142
a 2 4 38 12 17 49 20 31 0
e 1 3 5 6 7 8 9 10 11 13 14 15 16 18 19 21 22 23 24 25 26 27 28 29 30 32 33 34 35 36 37 39 40 41 42 43 44 45 46 47 48 50 51 52 53 54 55 56 57 58 59 60 61 62 63 0
1 -2 3 0
-1 -3 0
2 -3 0
2 4 5 0
-2 -5 0
-4 -5 0
-2 -4 6 0
2 -6 0
4 -6 0
5 6 7 0
-5 -7 0
-6 -7 0
7 8 9 0
-7 -9 0
-8 -9 0
3 9 10 0
-3 -10 0
-9 -10 0
-11 -12 13 0
11 -13 0
12 -13 0
-1 2 14 0
1 -14 0
-2 -14 0
13 14 15 0
-13 -15 0
-14 -15 0
-16 -17 18 0
16 -18 0
17 -18 0
19 20 21 0
-19 -21 0
-20 -21 0
-18 21 22 0
18 -22 0
-21 -22 0
-19 -20 23 0
19 -23 0
20 -23 0
22 23 24 0
-22 -24 0
-23 -24 0
11 12 25 0
-11 -25 0
-12 -25 0
24 25 26 0
-24 -26 0
-25 -26 0
-15 26 27 0
15 -27 0
-26 -27 0
-10 27 28 0
10 -28 0
-27 -28 0
-7 -8 29 0
7 -29 0
8 -29 0
28 29 30 0
-28 -30 0
-29 -30 0
6 31 32 0
-6 -32 0
-31 -32 0
-6 -31 33 0
6 -33 0
31 -33 0
32 33 34 0
-32 -34 0
-33 -34 0
34 35 36 0
-34 -36 0
-35 -36 0
30 36 37 0
-30 -37 0
-36 -37 0
33 38 39 0
-33 -39 0
-38 -39 0
-33 -38 40 0
33 -40 0
38 -40 0
39 40 41 0
-39 -41 0
-40 -41 0
-41 -42 43 0
41 -43 0
42 -43 0
37 43 44 0
-37 -44 0
-43 -44 0
-34 -35 45 0
34 -45 0
35 -45 0
-44 45 46 0
44 -46 0
-45 -46 0
41 42 47 0
-41 -47 0
-42 -47 0
46 47 48 0
-46 -48 0
-47 -48 0
40 -49 50 0
-40 -50 0
49 -50 0
-40 49 51 0
40 -51 0
-49 -51 0
50 51 52 0
-50 -52 0
-51 -52 0
52 -53 54 0
-52 -54 0
53 -54 0
-48 54 55 0
48 -55 0
-54 -55 0
-52 53 56 0
52 -56 0
-53 -56 0
55 56 57 0
-55 -57 0
-56 -57 0
17 12 58 0
-17 -58 0
-12 -58 0
-58 20 59 0
58 -59 0
-20 -59 0
-59 -51 60 0
59 -60 0
51 -60 0
-57 -60 61 0
57 -61 0
60 -61 0
57 60 62 0
-57 -62 0
-60 -62 0
61 62 63 0
-61 -63 0
-62 -63 0
-63 0
